3451793845065250162507,14,1,2,03,4,1,2,07,2,1,2,013,3,1,2,07,13,1,2,02,11,1,2,01,3,1,2,07,6,1,2,09,6,1,2,05,6,1,2,06,7,1,2,011,8,1,2,014,1,1,2,03,7,1,2,012,15,1,2,05,10,1,2,010,10,1,2,08,9,1,2,08,8,1,2,02,4,1,2,07,8,1,2,011,12,1,2,04,3,1,2,015,5,1,2,06,5,1,2,012,2,1,2,05,5,1,2,08,3,1,2,07,15,1,2,012,9,1,2,09,12,1,2,010,8,1,2,015,4,1,2,03,3,1,2,013,6,1,2,06,15,1,2,010,6,1,2,012,5,1,2,04,1,1,2,02,11,1,2,04,11,1,2,01,9,1,2,010,1,1,2,02,4,1,2,09,14,1,2,08,4,1,2,07,3,1,2,09,15,1,2,010,1,1,2,01,2,1,2,0